W=9;
H=9;

MAX_TIME=W*H;
MAX_TRACKS=31;

TARGET=(5,9);

TRAINS=[(1,1,RIGHT),(1,9,DOWN),(9,9,LEFT),(9,1,TOP)];
DECOYS=[];

INIT_POS=[
(1,1,STRAIGHT_RL),
(1,5,ROCK),
(1,9,STRAIGHT_TD),
(3,3,STRAIGHT_RL),
(3,5,ROCK),
(3,7,STRAIGHT_RL),
(5,3,STRAIGHT_RL),
(5,5,STRAIGHT_RL),
(5,7,STRAIGHT_RL),
(5,9,STRAIGHT_RL),
(7,3,ROCK),
(7,5,CORNER_DL),
(7,7,ROCK),
(9,1,STRAIGHT_TD),
(9,5,ROCK),
(9,9,STRAIGHT_RL),
];
TUNNEL_PAIRS=[];

GATES=[
(5,3,3,false),
(5,5,2,false),
(5,7,1,false),
];
ACTIVATIONS=[
(3,3,3),
(3,7,1),
(7,5,2),
];

DSWITCHES=[];
STATIONS=[];
